

******************************************************************************
This program contains Ipopt, a library for large-scale nonlinear optimization.
 Ipopt is released as open source code under the Eclipse Public License (EPL).
         For more information visit https://github.com/coin-or/Ipopt
******************************************************************************

This is Ipopt version 3.14.11, running with linear solver MUMPS 5.5.1.

Number of nonzeros in equality constraint Jacobian...:        0
Number of nonzeros in inequality constraint Jacobian.:        0
Number of nonzeros in Lagrangian Hessian.............:       55

Total number of variables............................:       10
                     variables with only lower bounds:        0
                variables with lower and upper bounds:        0
                     variables with only upper bounds:        0
Total number of equality constraints.................:        0
Total number of inequality constraints...............:        0
        inequality constraints with only lower bounds:        0
   inequality constraints with lower and upper bounds:        0
        inequality constraints with only upper bounds:        0

iter    objective    inf_pr   inf_du lg(mu)  ||d||  lg(rg) alpha_du alpha_pr  ls
   0  2.7324805e+02 0.00e+00 1.00e+02  -1.0 0.00e+00    -  0.00e+00 0.00e+00   0
   1  1.9090802e-03 0.00e+00 4.28e-02  -1.0 9.63e-01    -  1.00e+00 1.00e+00f  1
   2  2.5744618e-04 0.00e+00 7.26e-03  -2.5 1.33e-01    -  1.00e+00 1.00e+00f  1
   3  3.1989917e-05 0.00e+00 2.90e-03  -3.8 7.08e-02    -  1.00e+00 1.00e+00f  1
   4  2.5810328e-06 0.00e+00 8.76e-04  -3.8 3.64e-02    -  1.00e+00 1.00e+00f  1
   5  6.3289717e-08 0.00e+00 1.48e-04  -5.7 1.45e-02    -  1.00e+00 1.00e+00f  1
   6  7.9766784e-11 0.00e+00 5.58e-06  -5.7 2.79e-03    -  1.00e+00 1.00e+00f  1
   7  1.4956351e-16 0.00e+00 7.74e-09  -8.6 1.04e-04    -  1.00e+00 1.00e+00f  1

Number of Iterations....: 7

                                   (scaled)                 (unscaled)
Objective...............:   1.3596200595367076e-16    1.4956351237835648e-16
Dual infeasibility......:   7.7433177755657504e-09    8.5179517310888025e-09
Constraint violation....:   0.0000000000000000e+00    0.0000000000000000e+00
Variable bound violation:   0.0000000000000000e+00    0.0000000000000000e+00
Complementarity.........:   0.0000000000000000e+00    0.0000000000000000e+00
Overall NLP error.......:   7.7433177755657504e-09    8.5179517310888025e-09


Number of objective function evaluations             = 8
Number of objective gradient evaluations             = 8
Number of equality constraint evaluations            = 0
Number of inequality constraint evaluations          = 0
Number of equality constraint Jacobian evaluations   = 0
Number of inequality constraint Jacobian evaluations = 0
Number of Lagrangian Hessian evaluations             = 7
Total seconds in IPOPT                               = 0.004

EXIT: Optimal Solution Found.
 
Ipopt 3.14.11: Optimal Solution Found
